WARNING: for repeatability, setting FPU to use double precision
============================[ Problem Statistics ]=============================
|                                                                             |
|  Number of variables:         14399                                         |
|  Number of clauses:          238500                                         |
|  Parse time:                   0.05 s                                       |
|  Eliminated clauses:           0.03 Mb                                      |
|  Simplification time:          0.07 s                                       |
|                                                                             |
============================[ Search Statistics ]==============================
| Conflicts |          ORIGINAL         |          LEARNT          | Progress |
|           |    Vars  Clauses Literals |    Limit  Clauses Lit/Cl |          |
===============================================================================
|       100 |    1688    12338    36926 |     4523      100     13 | 69.935 % |
|       250 |    1688    12338    36926 |     4976      250     22 | 69.935 % |
|       475 |    1688    12338    36926 |     5473      475     24 | 69.935 % |
|       812 |    1688    12338    36926 |     6021      812     31 | 69.935 % |
|      1318 |    1688    12338    36926 |     6623     1318     36 | 69.935 % |
|      2077 |    1688    12338    36926 |     7285     2077     39 | 69.935 % |
|      3216 |    1688    12338    36926 |     8014     3216     47 | 69.935 % |
===============================================================================
restarts              : 25
conflicts             : 4724           (27333 /sec)
decisions             : 20919          (0.00 % random) (121038 /sec)
propagations          : 293073         (1695730 /sec)
conflict literals     : 224033         (4.76 % deleted)
Memory used           : 34.00 MB
CPU time              : 0.17283 s

SATISFIABLE
